SECTION Graph
Nodes 603
Edges 1207
E 1 514 41
E 1 557 1
E 2 565 2
E 3 4 10
E 3 405 41
E 3 537 34
E 4 555 34
E 5 6 1
E 5 34 1
E 5 131 8
E 5 455 1
E 6 17 2
E 6 35 1
E 6 132 8
E 7 8 1
E 7 36 1
E 7 134 8
E 7 466 1
E 8 37 1
E 8 135 8
E 8 474 2
E 9 13 1
E 9 490 1
E 9 494 1
E 9 540 41
E 10 14 1
E 10 502 1
E 10 505 1
E 10 551 41
E 11 15 1
E 11 120 1
E 11 391 31
E 11 483 5
E 12 16 1
E 12 492 2
E 12 501 2
E 12 507 5
E 13 18 1
E 13 486 1
E 13 538 41
E 14 19 1
E 14 499 1
E 14 549 41
E 15 20 1
E 15 123 1
E 15 386 31
E 16 21 1
E 16 129 2
E 16 498 2
E 17 42 1
E 17 466 1
E 17 480 8
E 18 414 31
E 18 483 1
E 18 537 41
E 19 494 2
E 19 496 1
E 19 547 41
E 20 130 1
E 20 383 31
E 20 451 8
E 21 135 2
E 21 474 8
E 21 495 2
E 22 23 2
E 22 28 1
E 22 534 1
E 22 541 8
E 23 29 1
E 23 536 2
E 23 545 8
E 24 546 5
E 24 553 1
E 25 500 38
E 25 539 1
E 25 543 1
E 25 544 1
E 26 548 2
E 26 550 1
E 27 517 1
E 27 518 1
E 27 520 2
E 27 524 5
E 28 29 2
E 28 528 8
E 28 533 1
E 29 531 8
E 29 535 2
E 30 470 33
E 30 523 1
E 30 525 1
E 30 526 1
E 31 529 2
E 31 530 1
E 31 532 1
E 32 45 1
E 32 401 4
E 32 417 1
E 32 418 1
E 33 46 1
E 33 416 4
E 33 430 1
E 33 431 1
E 34 35 1
E 34 140 8
E 34 450 1
E 35 42 2
E 35 141 8
E 36 37 1
E 36 143 8
E 36 463 1
E 37 144 8
E 37 473 2
E 38 47 1
E 38 136 1
E 38 326 31
E 38 410 5
E 39 48 1
E 39 438 5
E 39 445 2
E 39 454 2
E 40 45 1
E 40 390 4
E 40 410 1
E 41 46 1
E 41 409 4
E 41 417 2
E 41 423 1
E 42 443 8
E 42 463 1
E 43 47 1
E 43 139 1
E 43 333 31
E 43 447 8
E 44 48 1
E 44 144 2
E 44 460 2
E 44 473 8
E 45 396 4
E 45 413 1
E 46 412 4
E 46 426 1
E 47 145 1
E 47 330 31
E 48 151 2
E 48 458 2
E 49 53 1
E 49 246 1
E 49 252 1
E 49 282 9
E 50 54 1
E 50 252 1
E 50 266 2
E 50 286 9
E 51 246 9
E 51 282 1
E 52 266 9
E 52 286 2
E 52 295 1
E 52 365 31
E 53 153 1
E 53 239 9
E 53 245 1
E 54 153 1
E 54 241 9
E 54 262 2
E 55 239 1
E 55 245 9
E 56 235 13
E 56 241 2
E 56 262 9
E 56 316 31
E 57 67 5
E 57 303 1
E 57 308 1
E 58 60 1
E 58 331 1
E 58 362 11
E 59 61 1
E 59 303 1
E 59 308 1
E 59 328 11
E 60 62 1
E 60 328 1
E 60 359 11
E 61 288 6
E 61 300 1
E 61 325 11
E 62 315 6
E 62 325 1
E 62 356 11
E 63 70 5
E 63 224 1
E 63 225 1
E 64 71 5
E 64 224 1
E 64 227 1
E 64 251 27
E 65 226 11
E 65 234 1
E 65 236 1
E 65 237 1
E 66 72 1
E 66 77 5
E 66 253 1
E 67 290 1
E 67 291 1
E 68 69 1
E 68 211 1
E 68 212 1
E 68 221 11
E 69 213 1
E 69 222 11
E 69 247 43
E 70 220 1
E 70 223 1
E 71 222 1
E 71 223 1
E 71 250 32
E 72 74 1
E 72 79 5
E 72 248 1
E 73 75 1
E 73 248 11
E 73 290 1
E 73 291 1
E 74 81 5
E 74 213 43
E 74 247 1
E 75 247 11
E 75 258 8
E 75 287 1
E 76 87 5
E 76 232 1
E 76 233 1
E 77 79 1
E 77 244 1
E 78 80 1
E 78 232 1
E 78 233 1
E 78 243 11
E 79 81 1
E 79 243 1
E 80 199 43
E 80 231 1
E 80 242 11
E 81 209 43
E 81 242 1
E 82 90 5
E 82 195 1
E 82 196 1
E 83 91 5
E 83 195 1
E 83 199 1
E 83 231 43
E 84 85 1
E 84 198 11
E 84 206 1
E 84 208 1
E 85 199 11
E 85 209 1
E 85 242 43
E 86 92 1
E 86 97 5
E 86 219 1
E 87 229 1
E 87 230 1
E 88 89 1
E 88 176 1
E 88 177 1
E 88 192 11
E 89 179 1
E 89 193 11
E 89 217 43
E 90 191 1
E 90 194 1
E 91 193 1
E 91 194 1
E 91 228 43
E 92 94 1
E 92 99 5
E 92 218 1
E 93 95 1
E 93 218 11
E 93 229 1
E 93 230 1
E 94 101 5
E 94 179 43
E 94 217 1
E 95 193 43
E 95 217 11
E 95 228 1
E 96 107 5
E 96 204 1
E 96 205 1
E 97 99 1
E 97 216 1
E 98 100 1
E 98 204 1
E 98 205 1
E 98 215 11
E 99 101 1
E 99 215 1
E 100 190 17
E 100 203 1
E 100 214 11
E 101 174 43
E 101 214 1
E 102 109 5
E 102 159 1
E 102 160 1
E 103 110 5
E 103 159 1
E 103 163 1
E 103 185 24
E 104 105 1
E 104 162 11
E 104 171 1
E 104 173 1
E 105 163 11
E 105 174 1
E 105 197 24
E 106 111 1
E 106 201 12
E 107 201 1
E 107 202 1
E 108 154 1
E 108 155 11
E 109 157 1
E 110 156 1
E 110 157 1
E 110 181 24
E 111 112 12
E 111 113 1
E 112 114 1
E 112 201 1
E 112 202 1
E 113 114 12
E 113 168 17
E 114 182 17
E 114 200 1
E 115 158 6
E 116 158 5
E 116 161 1
E 116 164 1
E 116 166 6
E 117 158 1
E 117 161 5
E 118 158 1
E 118 164 5
E 119 515 141
E 120 123 1
E 120 478 1
E 120 486 5
E 121 122 1
E 121 126 1
E 121 481 2
E 121 496 5
E 122 127 1
E 122 489 1
E 122 499 5
E 123 124 1
E 123 130 1
E 124 125 1
E 124 131 1
E 124 478 1
E 125 126 2
E 125 132 1
E 125 481 1
E 126 127 1
E 126 480 1
E 127 128 1
E 127 133 1
E 128 129 1
E 128 134 1
E 128 489 1
E 129 135 1
E 129 492 1
E 130 131 1
E 130 455 8
E 131 132 1
E 132 480 2
E 133 134 1
E 133 466 8
E 133 480 1
E 134 135 1
E 136 145 1
E 136 413 5
E 136 432 1
E 137 138 1
E 137 148 1
E 137 423 5
E 137 436 2
E 138 149 1
E 138 426 5
E 138 442 1
E 139 140 1
E 139 145 1
E 139 450 8
E 140 141 1
E 140 146 1
E 141 147 1
E 141 443 2
E 142 143 1
E 142 149 1
E 142 443 1
E 142 463 8
E 143 144 1
E 143 150 1
E 144 151 1
E 145 146 1
E 146 147 1
E 146 432 1
E 147 148 2
E 147 436 1
E 148 149 1
E 148 443 1
E 149 150 1
E 150 151 1
E 150 442 1
E 151 445 1
E 152 284 6
E 152 302 1
E 152 318 10
E 153 240 9
E 153 252 1
E 154 156 11
E 154 167 24
E 155 156 1
E 155 157 1
E 156 178 24
E 157 159 5
E 159 162 1
E 160 162 1
E 160 171 11
E 161 165 6
E 162 163 1
E 163 187 24
E 164 168 6
E 165 166 1
E 165 167 1
E 166 168 1
E 166 169 1
E 167 169 1
E 167 178 11
E 168 170 1
E 169 170 1
E 169 180 11
E 170 182 11
E 171 172 1
E 172 173 1
E 172 175 5
E 173 174 1
E 173 176 5
E 174 179 5
E 175 176 1
E 175 177 1
E 176 179 1
E 177 191 11
E 178 180 1
E 178 181 1
E 180 182 1
E 180 183 1
E 181 183 1
E 181 185 5
E 182 184 1
E 183 184 1
E 183 186 5
E 184 188 5
E 184 200 17
E 185 186 1
E 185 187 1
E 186 188 1
E 186 189 1
E 187 189 1
E 187 197 11
E 188 190 1
E 188 203 17
E 189 190 1
E 191 192 1
E 192 193 1
E 192 194 1
E 194 195 5
E 195 198 1
E 196 198 1
E 196 206 11
E 197 214 19
E 198 199 1
E 200 202 1
E 200 203 5
E 202 204 5
E 203 204 1
E 205 216 11
E 206 207 1
E 207 208 1
E 207 210 5
E 208 209 1
E 208 211 5
E 209 213 5
E 210 211 1
E 210 212 1
E 211 213 1
E 212 220 11
E 214 215 1
E 215 216 1
E 217 218 1
E 218 219 1
E 219 229 11
E 220 221 1
E 221 222 1
E 221 223 1
E 222 249 33
E 223 224 5
E 224 226 1
E 225 226 1
E 225 234 11
E 226 227 1
E 227 236 11
E 227 257 27
E 228 230 1
E 228 231 5
E 230 232 5
E 231 232 1
E 233 244 11
E 234 235 1
E 235 237 1
E 235 268 20
E 236 238 1
E 236 292 27
E 237 238 1
E 237 271 20
E 238 275 20
E 238 294 27
E 239 240 1
E 240 241 1
E 242 243 1
E 243 244 1
E 245 246 1
E 247 248 1
E 248 253 1
E 249 254 1
E 249 255 1
E 250 255 1
E 250 270 5
E 251 256 1
E 251 257 1
E 252 284 9
E 253 290 11
E 254 258 1
E 254 259 1
E 255 259 1
E 255 273 5
E 256 260 1
E 256 261 1
E 257 261 1
E 257 292 11
E 258 263 1
E 259 263 1
E 259 277 5
E 260 264 1
E 260 265 1
E 261 265 1
E 261 293 11
E 262 266 1
E 262 268 2
E 263 269 2
E 263 280 5
E 264 267 1
E 264 270 2
E 265 267 1
E 265 296 11
E 266 272 2
E 267 274 2
E 267 298 11
E 268 271 1
E 268 272 1
E 269 285 5
E 269 287 6
E 270 273 1
E 270 274 1
E 271 275 1
E 271 276 1
E 272 276 1
E 273 277 1
E 273 278 1
E 274 278 1
E 274 304 11
E 275 279 1
E 275 336 27
E 276 279 1
E 277 280 1
E 277 281 1
E 278 281 1
E 278 305 11
E 279 339 27
E 280 283 1
E 280 285 2
E 281 283 1
E 281 309 11
E 282 284 1
E 283 288 2
E 283 311 11
E 284 286 1
E 285 288 1
E 285 300 6
E 286 289 1
E 287 291 1
E 287 300 5
E 288 314 11
E 289 295 2
E 289 302 5
E 291 303 5
E 292 293 1
E 292 294 1
E 293 296 1
E 293 297 1
E 294 297 1
E 294 316 11
E 295 307 5
E 295 368 31
E 296 298 1
E 296 299 1
E 297 299 1
E 297 317 11
E 298 301 1
E 298 304 2
E 299 301 1
E 299 319 11
E 300 303 1
E 301 306 2
E 301 322 11
E 302 307 2
E 302 320 10
E 304 305 1
E 304 306 1
E 305 309 1
E 305 310 1
E 306 310 1
E 306 329 11
E 307 326 10
E 307 390 31
E 308 331 11
E 309 311 1
E 309 312 1
E 310 312 1
E 310 332 11
E 311 313 1
E 311 314 2
E 312 313 1
E 312 334 11
E 313 315 2
E 313 335 11
E 314 315 1
E 314 325 6
E 315 337 11
E 316 317 1
E 316 336 9
E 317 319 1
E 317 338 9
E 318 320 1
E 318 321 1
E 319 322 1
E 319 340 9
E 320 323 1
E 320 326 2
E 321 323 1
E 321 324 1
E 322 329 2
E 322 344 9
E 323 327 1
E 323 330 2
E 324 327 1
E 324 342 8
E 325 328 1
E 326 330 1
E 327 333 2
E 327 346 8
E 328 331 1
E 329 332 1
E 329 351 9
E 330 333 1
E 332 334 1
E 332 353 9
E 333 352 8
E 334 335 1
E 334 357 9
E 335 337 2
E 335 360 9
E 336 338 1
E 336 339 1
E 337 343 2
E 337 364 9
E 338 340 1
E 338 341 1
E 339 341 1
E 339 365 9
E 340 344 1
E 340 345 1
E 341 345 1
E 341 367 9
E 342 346 1
E 342 347 1
E 343 348 1
E 343 370 9
E 344 349 1
E 344 351 2
E 345 349 1
E 345 371 9
E 346 350 1
E 346 352 2
E 347 350 1
E 347 369 8
E 348 356 3
E 348 375 9
E 349 354 2
E 349 377 9
E 350 355 2
E 350 373 8
E 351 353 1
E 351 354 1
E 352 355 1
E 352 447 31
E 353 357 1
E 353 358 1
E 354 358 1
E 354 385 9
E 355 383 8
E 355 451 31
E 356 359 1
E 356 387 9
E 357 360 1
E 357 361 1
E 358 361 1
E 358 388 9
E 359 362 1
E 359 392 9
E 360 363 1
E 360 364 2
E 361 363 1
E 361 394 9
E 362 397 9
E 363 366 2
E 363 399 9
E 364 366 1
E 364 370 2
E 365 367 1
E 365 368 1
E 366 376 2
E 366 406 9
E 367 371 1
E 367 372 1
E 368 372 1
E 368 390 5
E 369 373 1
E 369 374 1
E 370 375 1
E 370 376 1
E 371 377 1
E 371 378 1
E 372 378 1
E 372 396 5
E 373 379 1
E 373 383 2
E 374 379 1
E 374 380 1
E 375 381 1
E 375 387 3
E 376 381 1
E 376 411 9
E 377 382 1
E 377 385 2
E 378 382 1
E 378 401 5
E 379 384 1
E 379 386 2
E 380 384 1
E 380 405 6
E 381 393 3
E 381 415 9
E 382 389 2
E 382 404 5
E 383 386 1
E 384 391 2
E 384 407 6
E 385 388 1
E 385 389 1
E 386 391 1
E 387 392 1
E 387 393 1
E 388 394 1
E 388 395 1
E 389 395 1
E 389 409 5
E 390 396 1
E 391 414 6
E 392 397 1
E 392 398 1
E 393 398 1
E 393 421 9
E 394 399 1
E 394 400 1
E 395 400 1
E 395 412 5
E 396 401 1
E 397 402 1
E 398 402 1
E 398 424 9
E 399 403 1
E 399 406 2
E 400 403 1
E 400 416 5
E 401 404 1
E 402 427 9
E 403 408 2
E 403 419 5
E 404 409 2
E 404 417 4
E 405 407 1
E 406 408 1
E 406 411 2
E 407 414 2
E 408 422 5
E 408 425 6
E 409 412 1
E 410 413 1
E 411 415 1
E 411 429 6
E 412 416 1
E 413 418 1
E 415 421 3
E 415 434 6
E 416 419 1
E 417 420 1
E 418 420 1
E 418 432 5
E 419 422 2
E 419 430 4
E 420 423 2
E 420 436 5
E 421 424 1
E 421 425 1
E 422 429 2
E 422 437 4
E 423 426 1
E 424 427 1
E 424 428 1
E 425 428 1
E 425 434 8
E 425 446 9
E 426 431 1
E 427 433 1
E 428 433 1
E 428 448 9
E 429 434 1
E 429 439 4
E 430 435 1
E 430 437 2
E 431 435 1
E 431 442 5
E 432 436 1
E 433 452 9
E 433 506 33
E 434 440 4
E 435 438 2
E 435 445 5
E 437 438 1
E 437 439 2
E 438 441 2
E 439 440 1
E 439 441 1
E 440 444 1
E 440 446 3
E 441 444 1
E 441 454 5
E 442 445 1
E 444 449 3
E 444 457 5
E 446 448 1
E 446 449 1
E 447 450 1
E 447 451 1
E 448 452 1
E 448 453 1
E 449 453 1
E 449 462 5
E 450 455 1
E 451 455 1
E 452 456 1
E 452 516 33
E 453 456 1
E 453 464 5
E 454 457 1
E 454 458 1
E 456 467 5
E 456 518 33
E 457 459 1
E 457 462 3
E 458 459 1
E 458 460 1
E 459 461 1
E 459 465 3
E 460 461 1
E 460 475 8
E 461 469 3
E 461 476 8
E 462 464 1
E 462 465 1
E 463 466 1
E 464 467 1
E 464 468 1
E 465 468 1
E 465 469 1
E 467 470 1
E 467 523 33
E 468 470 1
E 468 471 1
E 469 471 1
E 469 482 8
E 470 472 1
E 471 472 1
E 471 484 8
E 472 487 8
E 472 526 33
E 473 474 1
E 473 475 2
E 474 477 2
E 475 476 1
E 475 477 1
E 476 479 1
E 476 482 3
E 477 479 1
E 477 495 8
E 478 481 1
E 478 490 5
E 479 485 3
E 479 497 8
E 481 493 5
E 482 484 1
E 482 485 1
E 483 486 1
E 484 487 1
E 484 488 1
E 485 488 1
E 486 490 1
E 487 491 1
E 487 533 33
E 488 491 1
E 489 492 1
E 489 502 5
E 490 493 1
E 491 534 33
E 492 504 5
E 493 494 1
E 493 496 2
E 494 542 41
E 495 497 1
E 495 498 1
E 496 499 1
E 497 500 1
E 497 539 38
E 498 500 1
E 498 501 1
E 499 502 1
E 500 503 1
E 501 503 1
E 501 510 5
E 502 504 1
E 503 512 5
E 503 544 38
E 504 505 1
E 504 507 2
E 505 509 2
E 505 552 41
E 506 508 1
E 506 516 9
E 507 509 1
E 507 510 2
E 508 511 2
E 508 517 9
E 509 513 2
E 509 554 41
E 510 512 1
E 510 513 1
E 511 515 2
E 511 519 9
E 512 514 1
E 512 553 38
E 513 514 1
E 513 557 41
E 515 521 9
E 516 517 1
E 516 518 1
E 517 519 2
E 518 523 5
E 519 520 1
E 519 521 2
E 520 522 2
E 520 527 5
E 521 522 1
E 522 530 5
E 523 524 1
E 524 525 1
E 524 527 2
E 525 528 1
E 525 529 2
E 526 528 1
E 526 533 8
E 527 529 1
E 527 530 2
E 528 531 2
E 529 531 1
E 531 532 2
E 532 535 8
E 533 534 1
E 534 539 8
E 535 536 1
E 536 550 8
E 537 538 1
E 537 555 10
E 538 540 1
E 538 556 10
E 539 541 1
E 540 542 1
E 540 558 10
E 541 543 1
E 541 545 2
E 542 547 2
E 542 559 10
E 543 546 1
E 543 548 2
E 544 546 1
E 544 553 5
E 545 548 1
E 545 550 2
E 547 549 1
E 547 560 10
E 549 551 1
E 549 561 10
E 551 552 1
E 551 562 10
E 552 554 2
E 552 563 10
E 554 557 2
E 554 564 10
E 555 556 1
E 556 558 1
E 557 565 10
E 558 559 1
E 559 560 2
E 560 561 1
E 561 562 1
E 562 563 1
E 563 564 2
E 564 565 2
E 1 566 100000
E 2 566 100000
E 3 567 100000
E 4 567 100000
E 5 568 100000
E 6 568 100000
E 7 568 100000
E 8 568 100000
E 9 568 100000
E 10 568 100000
E 11 568 100000
E 12 568 100000
E 13 569 100000
E 14 569 100000
E 15 569 100000
E 16 569 100000
E 17 570 100000
E 18 570 100000
E 19 570 100000
E 20 570 100000
E 21 570 100000
E 22 571 100000
E 23 571 100000
E 24 571 100000
E 25 571 100000
E 26 571 100000
E 27 572 100000
E 28 572 100000
E 29 572 100000
E 30 572 100000
E 31 572 100000
E 32 573 100000
E 33 573 100000
E 34 573 100000
E 35 573 100000
E 36 573 100000
E 37 573 100000
E 38 573 100000
E 39 573 100000
E 40 574 100000
E 41 574 100000
E 42 574 100000
E 43 574 100000
E 44 574 100000
E 45 575 100000
E 46 575 100000
E 47 575 100000
E 48 575 100000
E 49 576 100000
E 50 576 100000
E 51 576 100000
E 52 576 100000
E 53 577 100000
E 54 577 100000
E 55 577 100000
E 56 577 100000
E 57 578 100000
E 58 578 100000
E 59 579 100000
E 60 579 100000
E 61 580 100000
E 62 580 100000
E 63 581 100000
E 64 581 100000
E 65 581 100000
E 66 582 100000
E 67 582 100000
E 68 583 100000
E 69 583 100000
E 70 583 100000
E 71 583 100000
E 72 584 100000
E 73 584 100000
E 74 585 100000
E 75 585 100000
E 76 586 100000
E 77 586 100000
E 78 587 100000
E 79 587 100000
E 80 588 100000
E 81 588 100000
E 82 589 100000
E 83 589 100000
E 84 589 100000
E 85 589 100000
E 86 590 100000
E 87 590 100000
E 88 591 100000
E 89 591 100000
E 90 591 100000
E 91 591 100000
E 92 592 100000
E 93 592 100000
E 94 593 100000
E 95 593 100000
E 96 594 100000
E 97 594 100000
E 98 595 100000
E 99 595 100000
E 100 596 100000
E 101 596 100000
E 102 597 100000
E 103 597 100000
E 104 597 100000
E 105 597 100000
E 106 598 100000
E 107 598 100000
E 108 599 100000
E 109 599 100000
E 110 599 100000
E 111 600 100000
E 112 600 100000
E 113 601 100000
E 114 601 100000
E 115 602 100000
E 116 602 100000
E 117 602 100000
E 118 602 100000
E 119 603 100000
E 120 568 100000
E 121 568 100000
E 122 568 100000
E 123 569 100000
E 124 569 100000
E 125 569 100000
E 126 569 100000
E 127 569 100000
E 128 569 100000
E 129 569 100000
E 130 570 100000
E 131 570 100000
E 132 570 100000
E 133 570 100000
E 134 570 100000
E 135 570 100000
E 136 573 100000
E 137 573 100000
E 138 573 100000
E 139 574 100000
E 140 574 100000
E 141 574 100000
E 142 574 100000
E 143 574 100000
E 144 574 100000
E 145 575 100000
E 146 575 100000
E 147 575 100000
E 148 575 100000
E 149 575 100000
E 150 575 100000
E 151 575 100000
E 152 576 100000
E 153 577 100000
END

SECTION Terminals
Terminals 38
T 566
T 567
T 568
T 569
T 570
T 571
T 572
T 573
T 574
T 575
T 576
T 577
T 578
T 579
T 580
T 581
T 582
T 583
T 584
T 585
T 586
T 587
T 588
T 589
T 590
T 591
T 592
T 593
T 594
T 595
T 596
T 597
T 598
T 599
T 600
T 601
T 602
T 603
END

SECTION Tree Decomposition
c We do not guarantee that this tree decomposition has minimum width.
s td 489 28 603
b 1 603 119
b 2 119 515
b 3 567 4 3
b 4 600 111 112
b 5 601 113 114
b 6 2 566 565
b 7 515 521 511
b 8 115 158 602
b 9 596 100 101
b 10 595 98 99
b 11 566 1 565
b 12 593 94 95
b 13 592 92 93
b 14 578 57 58
b 15 579 59 60
b 16 580 61 62
b 17 588 80 81
b 18 587 78 79
b 19 582 66 67
b 20 584 72 73
b 21 585 74 75
b 22 586 77 76
b 23 590 86 87
b 24 594 96 97
b 25 598 106 107
b 26 4 555 3
b 27 1 565 557 514
b 28 106 201 111 107
b 29 201 111 112 107
b 30 521 511 519 522
b 31 565 557 514 564
b 32 111 112 107 113
b 33 555 3 537 556
b 34 511 519 508 522
b 35 3 537 556 405
b 36 24 553 546 571
b 37 342 347 324 346
b 38 343 348 370 337
b 39 362 359 397 58
b 40 562 561 551 563
b 41 369 347 373 374
b 42 380 384 405 374
b 43 402 427 398 397
b 44 414 407 391 18
b 45 560 561 547 559
b 46 108 154 155 599
b 47 109 599 157 102
b 48 410 40 413 38
b 49 26 548 550 571
b 50 117 158 602 161
b 51 158 602 118 161 116
b 52 118 161 116 164
b 53 161 116 164 165
b 54 116 164 165 166
b 55 164 165 166 168
b 56 165 166 168 167
b 57 166 169 168 167
b 58 488 491 485 484
b 59 483 486 18 11
b 60 506 508 516 433
b 61 530 522 527 31
b 62 532 31 531 535
b 63 536 550 23 535
b 64 558 556 540 559
b 65 581 63 64 65
b 66 160 171 102 162
b 67 51 282 246 576
b 68 170 169 168 182
b 69 172 171 173 175
b 70 177 191 175 88
b 71 189 190 186 187
b 72 196 206 82 198
b 73 197 187 214 105
b 74 205 216 98 96
b 75 207 206 208 210
b 76 212 220 68 210
b 77 55 245 239 577
b 78 219 229 86 218
b 79 225 234 63 226
b 80 233 244 78 76
b 81 240 241 239 153
b 82 249 254 255 222
b 83 250 255 71 270
b 84 251 256 64 257
b 85 253 290 248 66
b 86 258 254 263 75
b 87 260 264 256 265
b 88 269 285 263 287
b 89 272 276 268 266
b 90 279 276 275 339
b 91 289 295 302 286
b 92 308 331 59 57
b 93 318 321 152 320
b 94 112 107 113 202 114
b 95 407 384 391 405 18
b 96 519 517 508 520 522
b 97 107 113 202 114 96
b 98 113 202 114 168 96
b 99 557 514 564 554 513
b 100 169 180 168 182 167
b 101 514 564 554 513 512
b 102 564 554 513 563 512
b 103 216 215 98 96 97
b 104 244 243 77 78 76
b 105 229 86 218 93 87
b 106 234 63 226 65 235
b 107 245 53 239 577 246
b 108 282 49 246 284 576
b 109 290 248 73 66 67
b 110 331 328 59 57 58
b 111 348 370 375 356 337
b 112 321 323 324 152 320
b 113 427 398 397 424 433
b 114 553 546 544 571 512
b 115 546 544 543 571 512
b 116 491 487 485 484 534
b 117 548 545 550 543 571
b 118 537 556 538 405 18
b 119 154 155 156 599 167
b 120 155 156 599 157 167
b 121 190 186 188 187 100
b 122 191 175 88 90 192
b 123 220 221 70 68 210
b 124 241 239 153 54 56
b 125 264 256 265 267 270
b 126 544 503 25 543 571 512
b 127 545 550 23 543 541 571
b 128 550 23 543 541 571 535
b 129 156 599 157 110 178 167
b 130 599 157 110 178 167 102
b 131 157 159 110 178 167 102
b 132 53 239 577 153 49 246
b 133 239 577 153 49 246 54 56
b 134 153 49 246 252 54 56
b 135 589 84 82 83 85
b 136 583 70 68 69 71
b 137 597 104 102 103 105
b 138 591 88 89 90 91
b 139 384 379 391 405 18 374
b 140 86 218 92 93 87 97
b 141 218 92 93 87 217 97
b 142 556 538 405 18 540 559
b 143 538 405 18 13 540 559
b 144 517 508 520 522 516 27
b 145 508 520 522 516 27 433
b 146 520 522 516 527 27 433
b 147 522 516 527 27 31 433
b 148 202 114 168 200 96 204
b 149 114 168 182 200 96 204
b 150 215 98 96 214 97 99
b 151 554 513 509 552 563 512
b 152 513 509 510 552 563 512
b 153 243 77 78 242 76 79
b 154 77 78 242 76 66 79
b 155 248 72 247 73 66 67
b 156 328 59 57 325 58 60
b 157 49 246 252 54 284 576 56
b 158 252 54 50 284 576 56
b 159 54 50 262 284 576 56
b 160 463 142 36 42 466
b 161 441 438 439 444 454
b 162 440 446 434 439 444
b 163 467 523 456 464 470
b 164 344 349 340 322 351
b 165 437 430 438 422 439
b 166 436 432 147 420 137
b 167 435 430 438 431 445
b 168 345 371 349 340 341
b 169 350 347 346 355 373
b 170 347 324 346 355 373 374
b 171 352 346 333 447 355
b 172 353 332 351 357 358
b 173 429 411 434 422 439
b 174 428 424 425 433 448
b 175 354 349 351 358 385
b 176 360 335 364 357 363
b 177 361 394 357 358 363
b 178 365 52 339 367 368
b 179 366 376 364 363 406
b 180 372 396 367 368 378
b 181 421 393 424 415 425
b 182 377 371 349 385 382
b 183 419 430 416 403 422
b 184 381 393 375 415 376
b 185 505 509 552 10 504
b 186 383 386 20 355 373
b 187 387 392 393 375 356
b 188 388 394 395 358 385
b 189 389 395 385 382 409
b 190 390 40 396 368 307
b 191 399 394 363 403 406
b 192 400 394 395 416 403
b 193 401 404 32 396 378
b 194 408 425 403 406 422
b 195 412 395 416 46 409
b 196 417 404 41 420 32
b 197 418 432 413 420 32
b 198 493 490 494 481 496
b 199 423 426 41 420 137
b 200 507 509 510 504 12
b 201 492 504 489 12 129
b 202 442 150 138 431 445
b 203 502 499 10 504 489
b 204 462 457 465 464 449
b 205 458 459 460 48 454
b 206 539 25 541 497 534
b 207 471 468 484 469 472
b 208 474 473 477 8 21
b 209 478 120 490 124 481
b 210 482 485 484 469 476
b 211 498 495 16 500 501
b 212 461 469 476 459 460
b 213 526 528 30 472 533
b 214 542 540 494 547 559
b 215 549 561 551 14 547
b 216 561 551 563 14 547 559
b 217 163 187 103 162 105
b 218 174 105 173 101 179
b 219 176 173 179 175 88
b 220 181 110 178 183 185
b 221 184 182 200 188 183
b 222 193 89 95 91 192
b 223 195 194 82 198 83
b 224 455 451 450 5 130
b 225 475 476 460 473 477
b 226 203 200 188 204 100
b 227 199 198 83 80 85
b 228 209 85 81 208 213
b 229 529 527 31 525 531
b 230 211 208 213 68 210
b 231 443 142 148 141 42
b 232 223 221 70 224 71
b 233 227 226 64 257 236
b 234 228 95 91 230 231
b 235 232 78 76 230 231
b 236 237 271 238 65 235
b 237 524 527 27 525 523
b 238 479 485 476 477 497
b 239 452 516 456 433 448
b 240 518 516 27 523 456
b 241 453 456 464 448 449
b 242 259 254 255 263 277
b 243 254 255 263 277 75 222
b 244 261 256 265 257 293
b 245 480 17 133 126 132
b 246 273 255 277 270 278
b 247 274 267 304 270 278
b 248 280 285 283 263 277
b 249 281 283 277 278 309
b 250 288 285 283 61 314
b 251 291 73 67 287 303
b 252 292 257 236 293 294
b 253 296 265 298 293 299
b 254 297 317 293 294 299
b 255 300 285 61 287 303
b 256 301 298 306 299 322
b 257 305 304 310 278 309
b 258 311 283 314 313 309
b 259 312 334 313 310 309
b 260 315 314 313 62 337
b 261 316 317 336 56 294
b 262 319 317 340 299 322
b 263 327 323 324 346 333
b 264 326 330 38 307 320
b 265 329 306 332 322 351
b 266 338 317 340 336 341
b 267 398 397 392 393 424 433
b 268 370 375 356 376 337 364
b 269 487 485 484 472 533 534
b 270 171 104 102 162 173 175
b 271 104 102 103 162 105 173 175
b 272 180 168 182 178 167 183
b 273 186 188 183 185 187 100
b 274 206 84 82 198 208 210
b 275 84 82 198 83 85 208 210
b 276 276 275 271 268 266 339
b 277 23 543 541 571 22 29 535
b 278 551 552 563 10 14 547 559
b 279 359 397 392 356 58 60
b 280 486 18 13 11 120 490
b 281 295 302 286 52 368 307
b 282 92 93 87 217 94 97 99
b 283 379 391 405 18 386 373 374
b 284 391 405 18 11 386 373 374
b 285 98 96 204 100 214 97 99
b 286 159 110 178 167 102 103 162
b 287 110 178 167 183 185 102 103 162
b 288 50 262 284 576 286 266 56
b 289 262 284 576 286 268 266 56
b 290 284 576 286 268 266 56 152
b 291 576 286 52 268 266 56 152
b 292 194 82 198 83 90 91 192
b 293 221 70 224 222 68 71 210
b 294 59 57 325 61 303 58 60
b 295 57 325 67 61 303 58 60
b 296 275 271 238 268 266 339 336
b 297 72 247 73 66 74 79 67
b 298 302 286 52 368 152 307 320
b 299 93 87 217 94 97 99 95 230
b 300 87 217 94 97 99 95 76 230
b 301 217 94 97 99 89 95 76 230
b 302 325 67 61 303 314 58 60 62
b 303 271 238 268 266 339 336 65 235
b 304 70 224 63 222 68 69 71 210
b 305 143 150 142 36 144 574
b 306 145 47 139 136 146 575
b 307 149 150 142 138 148 575
b 308 123 15 120 124 130 569
b 309 127 128 133 126 122 569
b 310 151 150 445 575 48 144
b 311 135 134 570 8 21 129
b 312 140 139 34 141 146 574
b 313 131 132 124 570 5 130
b 314 125 126 132 124 481 569
b 315 503 25 543 571 500 501 512
b 316 468 484 469 465 472 464 470
b 317 256 265 267 64 270 257 293
b 318 265 267 298 64 270 257 293 299
b 319 451 450 447 5 20 130 355
b 320 323 324 346 333 330 152 320
b 321 334 335 313 310 309 332 357
b 322 397 392 393 424 356 58 60 433
b 323 392 393 424 375 356 58 60 433
b 324 168 182 200 178 167 183 96 204
b 325 182 200 188 178 167 183 96 204
b 326 200 188 178 167 183 96 204 100
b 327 188 178 167 183 185 187 96 204 100
b 328 516 527 27 31 523 456 433 448
b 329 527 27 31 525 531 523 456 433 448
b 330 27 31 525 531 572 523 456 433 448
b 331 31 525 531 572 523 456 535 433 448
b 332 35 34 141 6 42 573
b 333 37 473 8 36 144 573
b 334 44 460 473 48 144 574
b 335 43 333 47 447 139 574
b 336 121 126 122 481 496 568
b 337 7 134 568 8 36 466
b 338 28 572 528 533 22 29
b 339 457 465 459 464 444 449 454
b 340 495 16 500 477 497 21 501
b 341 509 510 552 563 10 504 12 512
b 342 510 552 563 10 504 12 501 512
b 343 247 73 66 74 79 67 75 69
b 344 450 447 139 34 5 20 130 355
b 345 224 63 226 222 68 69 71 210 64
b 346 267 298 304 64 270 278 257 293 299
b 347 286 52 268 266 56 368 152 307 320
b 348 73 66 74 79 67 75 287 303 69
b 349 82 198 83 90 91 192 85 208 210
b 350 198 83 90 91 192 80 85 208 210
b 351 83 90 91 192 80 231 85 208 210
b 352 39 438 445 48 454 573
b 353 9 13 540 490 494 568
b 354 45 40 413 32 396 575
b 355 33 430 416 46 431 573
b 356 19 494 14 547 496 570
b 357 426 41 420 137 138 46 431
b 358 446 434 425 439 444 448 449
b 359 499 10 504 14 122 489 496
b 360 78 242 76 80 230 231 66 79
b 361 242 76 80 230 231 85 81 66 79
b 362 255 263 277 75 222 71 270 278
b 363 94 97 99 101 179 89 95 76 230
b 364 238 268 266 339 336 65 235 236 294
b 365 52 268 266 339 56 367 368 152 307 320
b 366 178 167 183 185 187 96 204 100 102 103 162
b 367 187 96 204 100 214 102 103 162 105
b 368 96 204 100 214 102 103 162 105 97 99
b 369 100 214 102 103 162 105 97 99 101
b 370 102 103 162 105 173 97 99 101 175
b 371 105 173 97 99 101 179 175
b 372 173 97 99 101 179 175 88
b 373 97 99 101 179 175 88 89 95 76 230
b 374 175 88 89 95 90 192 76 230
b 375 88 89 95 90 91 192 76 230
b 376 95 90 91 192 76 230 231
b 377 90 91 192 76 80 230 231 85 208 210
b 378 76 80 230 231 85 81 208 66 79 210
b 379 85 81 208 213 66 79 210
b 380 81 208 213 66 74 79 210
b 381 208 213 66 74 79 68 210
b 382 213 66 74 79 68 69 210
b 383 66 74 79 67 75 287 303 68 69 210
b 384 411 434 415 376 406 422 439
b 385 15 11 120 386 124 20 130 569
b 386 285 283 263 277 61 287 303 314
b 387 128 133 126 134 122 489 129 569
b 388 405 18 13 540 11 386 559 373 374
b 389 324 346 333 330 152 320 355 373 374
b 390 346 333 330 447 152 320 355 373 374
b 391 63 226 222 68 69 71 210 64 65 235
b 392 525 531 572 528 30 523 456 535 433 448
b 393 531 572 528 30 523 456 29 535 433 448
b 394 572 528 30 523 456 533 22 29 535 433 448
b 395 528 30 523 456 472 533 22 29 535 433 448
b 396 30 523 456 472 470 533 22 29 535 433 448
b 397 523 456 472 464 470 533 22 29 535 433 448
b 398 456 472 464 470 533 22 29 535 433 448 449
b 399 298 304 306 64 270 278 257 293 299 322
b 400 404 41 420 32 396 378 382 409
b 401 371 349 340 341 385 367 378 382
b 402 25 543 541 571 500 497 534 501 512
b 403 552 563 10 504 14 547 559 12 501 512
b 404 226 222 68 69 71 210 64 257 65 235 236
b 405 432 147 413 420 32 137 136 146
b 406 17 133 126 132 570 6 42 466
b 407 335 313 310 309 332 337 364 357 363
b 408 393 424 375 356 415 425 376 58 60 433
b 409 424 375 356 415 425 376 58 60 433 448
b 410 375 356 415 425 376 58 60 337 364 433 448
b 411 356 415 425 376 58 60 62 337 364 433 448
b 412 147 413 420 32 137 148 136 141 146 575
b 413 434 415 425 376 406 422 439 444 448 449
b 414 304 306 310 64 270 278 309 257 293 299 322
b 415 16 500 477 497 12 21 129 501 569
b 416 485 484 469 476 472 533 477 497 534
b 417 484 469 476 465 472 464 470 533 477 497 534
b 418 469 476 465 459 460 472 464 470 533 477 497 534
b 419 476 465 459 460 472 464 470 533 473 477 497 534
b 420 283 263 277 61 287 303 314 313 278 309
b 421 543 541 571 500 22 29 497 534 535 501 512
b 422 306 310 64 270 278 309 257 332 293 299 322 351
b 423 349 340 341 322 351 358 385 367 378 382
b 424 317 340 336 56 341 293 294 299 322
b 425 394 395 416 357 358 363 385 403 406
b 426 333 330 47 447 139 152 320 355 373 374 574
b 427 330 47 447 139 38 152 307 320 355 373 374 574
b 428 40 413 32 396 368 38 307 575 574
b 429 395 416 357 358 363 385 403 406 46 382 409
b 430 18 13 540 11 120 490 386 559 570 373 374
b 431 13 540 11 120 490 494 386 559 568 570 373 374 569
b 432 540 11 120 490 494 386 547 559 568 570 373 374 569
b 433 430 438 416 403 422 439 46 431 445 573
b 434 438 416 403 422 439 46 431 445 48 444 454 573
b 435 11 120 490 494 386 547 559 124 568 570 20 130 373 374 569
b 436 120 490 494 386 547 559 124 481 568 570 20 130 373 374 569
b 437 490 494 386 547 559 124 481 496 568 570 20 130 373 374 569
b 438 494 386 14 547 559 124 481 496 568 570 20 130 373 374 569
b 439 386 14 547 559 124 481 496 568 570 20 130 355 373 374 569
b 440 10 504 14 547 559 122 489 496 568 12 501 512
b 441 504 14 547 559 122 489 496 568 12 129 501 512
b 442 465 459 460 472 464 470 533 473 477 497 534 444 449 454
b 443 459 460 472 464 470 533 473 477 497 534 48 444 449 454
b 444 460 472 464 470 533 473 477 497 534 48 144 444 449 454 574
b 445 133 126 132 134 122 489 570 6 42 129 466 569
b 446 126 132 134 122 124 481 489 496 568 570 6 42 129 466 569
b 447 132 134 122 124 481 489 496 568 570 5 6 42 129 130 466 569
b 448 263 277 61 75 287 303 314 222 71 313 270 278 309
b 449 500 22 29 477 497 534 535 12 21 129 501 512 569
b 450 150 142 138 148 431 445 575 36 48 144 574
b 451 142 138 148 431 445 141 575 36 42 48 144 466 574
b 452 67 61 75 287 303 314 68 69 210 58 60 62
b 453 47 447 139 38 136 146 152 307 320 575 355 373 374 574
b 454 413 420 32 137 396 148 368 38 136 141 146 307 575 574
b 455 268 266 339 336 56 65 235 236 294 367 368 152 307 320
b 456 339 336 56 341 65 235 236 294 367 368 152 307 320
b 457 340 336 56 341 293 294 299 322 351 358 385 367 378 382
b 458 415 425 376 58 60 62 337 364 406 422 439 433 444 448 449
b 459 425 376 58 60 62 337 364 403 406 422 439 433 444 448 449
b 460 376 58 60 62 337 364 363 403 406 422 439 433 444 448 449
b 461 41 420 32 137 396 138 46 378 382 409 431 574
b 462 61 75 287 303 314 222 68 69 71 210 313 270 278 309 58 60 62
b 463 314 222 68 69 71 210 313 270 278 309 58 60 62 337
b 464 134 122 124 481 489 496 568 570 5 6 8 21 36 42 129 130 466 569
b 465 447 139 34 38 136 146 152 307 320 575 5 20 130 355 373 374 574
b 466 139 34 38 136 141 146 152 307 320 575 5 20 130 355 373 374 574
b 467 222 68 69 71 210 313 64 270 278 309 257 65 235 236 58 60 62 337
b 468 34 38 136 141 146 152 307 320 575 5 6 20 42 130 355 373 374 573 574
b 469 313 310 64 270 278 309 257 332 65 235 236 58 60 62 337 364 357 363
b 470 472 464 470 533 473 22 29 477 497 534 535 48 144 433 444 448 449 454 574
b 471 310 64 270 278 309 257 332 65 235 236 293 299 322 351 58 60 62 337 364 357 363
b 472 257 332 65 235 236 293 294 299 322 351 58 60 62 337 364 357 363
b 473 332 65 235 236 293 294 299 322 351 58 60 62 337 364 357 358 363
b 474 420 32 137 396 138 148 46 368 378 382 409 431 38 136 141 146 307 575 574
b 475 32 137 396 138 148 46 368 378 382 409 431 38 136 141 146 307 575 573 574
b 476 396 138 148 46 367 368 378 382 409 431 38 136 141 146 307 575 573 574
b 477 473 22 29 477 497 534 535 8 21 36 48 144 433 444 448 449 454 573 574
b 478 14 547 559 122 124 481 489 496 568 570 12 20 129 130 355 373 374 501 512 569
b 479 122 124 481 489 496 568 570 5 6 8 12 20 21 36 42 129 130 355 373 374 466 501 512 569
b 480 22 29 477 497 534 535 8 12 21 36 48 129 144 433 444 448 449 454 501 512 569 573 574
b 481 416 357 358 363 385 403 406 422 439 46 382 409 431 445 48 444 454 573
b 482 336 56 341 65 235 236 293 294 299 322 351 358 385 367 368 378 382 152 307 320
b 483 65 235 236 293 294 299 322 351 58 60 62 337 364 357 358 363 385 367 368 378 382 152 307 320
b 484 138 148 46 367 368 378 382 409 431 445 38 136 141 146 307 575 36 42 48 144 466 573 574
b 485 58 60 62 337 364 357 358 363 385 403 406 422 439 367 368 378 382 152 307 320 433 444 448 449
b 486 357 358 363 385 403 406 422 439 46 367 368 378 382 409 431 445 152 307 320 48 433 444 448 449 454 573
b 487 46 367 368 378 382 409 431 445 38 136 141 146 152 307 320 575 36 42 48 144 433 444 448 449 454 466 573 574
b 488 38 136 141 146 152 307 320 575 5 6 20 36 42 48 130 144 355 373 374 433 444 448 449 454 466 573 574
b 489 5 6 8 12 20 21 36 42 48 129 130 144 355 373 374 433 444 448 449 454 466 501 512 569 573 574
1 2
2 7
7 30
30 34
34 96
96 144
144 145
145 146
146 147
147 328
328 329
329 330
330 331
331 392
392 393
393 394
394 395
395 396
396 397
397 398
398 470
470 477
477 480
480 489
489 488
488 487
487 484
487 486
486 485
488 468
486 481
484 476
476 475
475 474
489 479
479 464
479 478
468 466
485 483
483 482
466 465
483 473
473 472
472 471
471 469
464 447
485 460
478 439
447 446
460 459
439 438
459 458
438 437
470 444
437 436
436 435
474 454
482 457
465 453
469 467
444 443
467 463
443 442
463 462
484 451
482 456
435 432
480 449
456 455
432 431
481 434
474 461
478 441
471 422
446 445
453 427
442 419
462 452
462 448
441 440
419 418
481 429
458 411
467 404
451 450
431 430
422 414
427 426
418 417
411 410
458 413
454 412
457 423
455 365
434 433
448 420
404 391
414 399
410 409
409 408
391 345
365 347
399 346
469 407
454 428
457 424
449 415
449 421
421 402
455 364
440 403
429 425
430 388
426 390
390 389
417 416
408 323
345 304
423 401
346 318
364 303
403 342
420 386
323 322
342 341
465 344
435 385
461 400
445 387
445 406
452 302
452 383
383 348
348 343
448 362
412 405
347 298
347 291
407 321
415 340
421 277
402 315
403 278
388 284
389 320
304 293
344 319
318 317
302 295
383 382
343 297
303 296
291 290
284 283
295 294
382 381
290 289
381 380
289 288
380 379
379 378
378 361
378 377
377 351
351 350
350 349
361 360
377 376
349 275
349 292
376 375
375 374
374 373
373 363
363 301
301 300
300 299
373 372
299 282
372 371
371 370
370 369
369 368
368 367
367 366
366 327
366 287
327 326
326 325
325 324
368 285
370 271
287 286
442 339
461 357
440 359
417 316
413 358
413 384
433 355
428 354
388 143
389 170
416 269
322 267
322 279
385 308
341 152
387 309
362 243
298 281
277 128
315 126
278 216
468 332
297 155
296 276
394 338
283 139
294 156
288 159
360 154
275 274
282 141
327 273
324 272
285 150
324 149
271 270
286 131
143 142
464 311
464 337
152 151
128 127
159 158
154 153
141 140
149 148
131 130
466 312
158 157
130 129
157 134
134 133
133 132
447 313
446 314
446 336
438 356
477 333
444 334
453 306
431 353
434 352
450 305
450 307
450 310
430 280
426 335
410 268
423 164
423 175
365 178
433 165
433 167
433 183
420 249
420 258
391 106
399 256
409 174
408 181
408 184
407 176
428 190
424 254
424 261
424 262
424 266
402 206
425 177
425 188
425 191
425 192
390 171
416 210
416 238
323 187
386 255
304 136
401 168
401 182
318 253
303 236
386 248
386 250
400 193
400 196
406 245
348 251
362 246
405 166
405 197
321 259
340 211
320 112
320 263
293 232
293 123
319 224
317 125
317 244
381 230
346 247
379 228
476 180
350 227
360 235
376 234
275 135
292 223
375 138
375 222
374 122
395 213
372 219
371 218
341 200
367 217
287 220
326 226
325 221
357 199
359 203
316 207
271 137
358 162
384 173
170 169
269 116
267 113
243 242
126 115
216 215
155 109
139 95
156 110
273 121
272 100
150 103
142 118
151 102
127 117
153 104
140 105
148 98
157 108
129 120
339 204
133 124
132 107
268 111
397 163
473 172
398 241
328 239
115 114
472 252
328 240
102 101
98 97
120 119
101 99
97 94
341 185
460 179
439 186
459 194
477 208
437 198
436 209
329 237
329 229
443 205
463 260
451 160
451 231
432 214
434 161
441 201
422 265
427 264
419 225
418 212
429 189
429 195
404 233
450 202
414 257
391 65
428 48
386 88
114 36
362 83
317 84
118 35
35 33
147 61
110 92
367 73
170 37
170 41
279 39
243 82
243 86
281 91
128 63
216 40
216 45
276 89
276 90
139 42
274 72
274 75
270 66
270 69
142 64
130 47
280 59
106 79
112 93
123 76
125 87
108 67
122 70
116 58
113 43
109 85
95 44
121 71
100 57
100 68
57 56
56 55
103 74
55 54
54 53
53 52
52 51
117 49
51 50
104 80
105 78
145 60
124 81
111 38
107 77
119 46
99 31
31 27
94 32
32 29
29 28
331 62
140 13
150 24
97 5
154 22
154 18
155 20
302 16
383 19
383 21
295 14
294 15
378 17
369 9
33 26
26 3
299 12
150 10
140 23
32 4
27 11
11 6
28 25
50 8
END

EOF
